
(set-logic ALL) 

(declare-datatype MyList ((Nil) (Cons (head Real) (tail MyList)) )) 
(declare-fun l0 () MyList) 
(declare-fun l1 () MyList) 
(declare-fun l2 () MyList) 
(declare-fun l3 () MyList) 
(declare-fun i0 () Real) 
(declare-fun i1 () Real) 
(assert (= l3 Nil) )
(assert (or (is-Nil Nil) (is-Cons l3) (= l1 l2) (= l2 l3)) )
(assert (or (= l1 Nil) (= l3 Nil) (is-Nil l1)) )
(assert (or (= l3 Nil) (= l3 Nil) (is-Cons Nil)) )
(assert (not (= l2 Nil)) )
(assert (not (= l1 l1)) )
(assert (= l1 Nil) )
(assert (is-Nil Nil) )
(check-sat)
